node 0 w: 6.16, h: 12.95
node 1 w: 4.9, h: 12.95
node 2 w: 8.2026-06-21 11:59:47 - INFO - Set parameter WLSAccessID
2026-06-21 11:59:47 - INFO - Set parameter WLSSecret
2026-06-21 11:59:47 - INFO - Set parameter LicenseID to value 2756663
2026-06-21 11:59:47 - INFO - Academic license 2756663 - for non-commercial use only - registered to hu___@sjtu.edu.cn
2026-06-21 11:59:47 - INFO - Set parameter TimeLimit to value 300
2026-06-21 11:59:47 - INFO - Set parameter MIPGap to value 0
2026-06-21 11:59:47 - INFO - Set parameter MIPFocus to value 3
2026-06-21 11:59:47 - INFO - Set parameter Heuristics to value 0.5
2026-06-21 11:59:47 - INFO - Set parameter LogToConsole to value 1
2026-06-21 11:59:47 - INFO - Gurobi Optimizer version 13.0.1 build v13.0.1rc0 (linux64 - "Ubuntu 20.04.6 LTS")
2026-06-21 11:59:47 - INFO - 
2026-06-21 11:59:47 - INFO - CPU model: AMD Ryzen 9 9950X3D 16-Core Processor, instruction set [SSE2|AVX|AVX2|AVX512]
2026-06-21 11:59:47 - INFO - Thread count: 14 physical cores, 28 logical processors, using up to 28 threads
2026-06-21 11:59:47 - INFO - 
2026-06-21 11:59:47 - INFO - Non-default parameters:
2026-06-21 11:59:47 - INFO - TimeLimit  300
2026-06-21 11:59:47 - INFO - MIPGap  0
2026-06-21 11:59:47 - INFO - Heuristics  0.5
2026-06-21 11:59:47 - INFO - MIPFocus  3
2026-06-21 11:59:47 - INFO - 
2026-06-21 11:59:47 - INFO - Academic license 2756663 - for non-commercial use only - registered to hu___@sjtu.edu.cn
2026-06-21 11:59:47 - INFO - Optimize a model with 1440 rows, 658 columns and 4929 nonzeros (Min)
2026-06-21 11:59:47 - INFO - Model fingerprint: 0x740977ec
2026-06-21 11:59:47 - INFO - Model has 4 linear objective coefficients
2026-06-21 11:59:47 - INFO - Variable types: 259 continuous, 399 integer (399 binary)
2026-06-21 11:59:47 - INFO - Coefficient statistics:
2026-06-21 11:59:47 - INFO -   Matrix range     [3e-01, 4e+03]
2026-06-21 11:59:47 - INFO -   Objective range  [2e-05, 8e-02]
2026-06-21 11:59:47 - INFO -   Bounds range     [9e-01, 2e+07]
2026-06-21 11:59:47 - INFO -   RHS range        [9e-01, 3e+02]
2026-06-21 11:59:47 - INFO - 
2026-06-21 11:59:47 - INFO - Presolve removed 120 rows and 104 columns
2026-06-21 11:59:47 - INFO - Presolve time: 0.01s
2026-06-21 11:59:47 - INFO - Presolved: 1320 rows, 554 columns, 4672 nonzeros
2026-06-21 11:59:47 - INFO - Variable types: 181 continuous, 373 integer (373 binary)
2026-06-21 11:59:47 - INFO - Root relaxation presolve removed 132 rows and 28 columns
2026-06-21 11:59:47 - INFO - Root relaxation presolved: 1188 rows, 550 columns, 4380 nonzeros
2026-06-21 11:59:47 - INFO - 
2026-06-21 11:59:47 - INFO - 
2026-06-21 11:59:47 - INFO - Root relaxation: objective -2.414827e+01, 277 iterations, 0.00 seconds (0.01 work units)
2026-06-21 11:59:47 - INFO - 
2026-06-21 11:59:47 - INFO -     Nodes    |    Current Node    |     Objective Bounds      |     Work
2026-06-21 11:59:47 - INFO -  Expl Unexpl |  Obj  Depth IntInf | Incumbent    BestBd   Gap | It/Node Time
2026-06-21 11:59:47 - INFO - 
2026-06-21 11:59:47 - INFO -      0     0  -24.14827    0  151          -  -24.14827      -     -    0s
2026-06-21 11:59:47 - INFO -      0     0  -11.64625    0  154          -  -11.64625      -     -    0s
2026-06-21 11:59:48 - INFO -      0     0  -11.64625    0  149          -  -11.64625      -     -    0s
2026-06-21 11:59:48 - INFO -      0     0    1.63613    0  149          -    1.63613      -     -    0s
2026-06-21 11:59:48 - INFO -      0     0    1.68138    0  172          -    1.68138      -     -    0s
2026-06-21 11:59:48 - INFO -      0     0    1.68138    0  150          -    1.68138      -     -    0s
2026-06-21 11:59:48 - INFO -      0     0    1.81449    0  143          -    1.81449      -     -    0s
2026-06-21 11:59:48 - INFO -      0     0    1.81449    0  147          -    1.81449      -     -    0s
2026-06-21 11:59:48 - INFO -      0     0    2.10138    0  162          -    2.10138      -     -    0s
2026-06-21 11:59:48 - INFO -      0     0    2.10138    0  158          -    2.10138      -     -    0s
2026-06-21 11:59:48 - INFO -      0     0    2.10138    0  126          -    2.10138      -     -    0s
2026-06-21 11:59:48 - INFO -      0     0    2.38361    0  125          -    2.38361      -     -    0s
2026-06-21 11:59:48 - INFO -      0     0    2.38361    0  136          -    2.38361      -     -    0s
2026-06-21 11:59:48 - INFO -      0     0    2.38361    0  148          -    2.38361      -     -    0s
2026-06-21 11:59:48 - INFO -      0     0    2.38361    0  156          -    2.38361      -     -    0s
2026-06-21 11:59:48 - INFO -      0     0    2.45038    0  155          -    2.45038      -     -    0s
2026-06-21 11:59:48 - INFO -      0     0    2.45038    0  155          -    2.45038      -     -    0s
2026-06-21 11:59:48 - INFO -      0     0    2.45038    0  149          -    2.45038      -     -    0s
2026-06-21 11:59:48 - INFO -      0     0    2.53140    0  148          -    2.53140      -     -    0s
2026-06-21 11:59:48 - INFO -      0     0    2.53140    0  148          -    2.53140      -     -    0s
2026-06-21 11:59:49 - INFO -      0     2    2.53140    0  139          -    2.53140      -     -    2s
2026-06-21 11:59:52 - INFO -   2523  1991    3.37074   17  141          -    3.37074      -  48.2    5s
2026-06-21 11:59:57 - INFO -  12660  5757    5.96448   26   73          -    4.75308      -  54.9   10s
2026-06-21 12:00:02 - INFO -  18278  6864    6.42141   24   60          -    5.00430      -  53.3   15s
2026-06-21 12:00:08 - INFO -  42289  9705    5.99797   22   78          -    5.71264      -  45.9   20s
2026-06-21 12:00:13 - INFO -  52620  9249    7.25805   31   25          -    6.11370      -  46.5   25s
2026-06-21 12:00:18 - INFO -  75126  5286 infeasible   30               -    6.98062      -  44.3   30s
2026-06-21 12:00:21 - INFO - 
2026-06-21 12:00:21 - INFO - Cutting planes:
2026-06-21 12:00:21 - INFO -   Learned: 63
2026-06-21 12:00:21 - INFO -   Gomory: 197
2026-06-21 12:00:21 - INFO -   Lift-and-project: 43
2026-06-21 12:00:21 - INFO -   Cover: 12
2026-06-21 12:00:21 - INFO -   Implied bound: 7
2026-06-21 12:00:21 - INFO -   MIR: 88
2026-06-21 12:00:21 - INFO -   Mixing: 3
2026-06-21 12:00:21 - INFO -   Flow cover: 493
2026-06-21 12:00:21 - INFO -   Inf proof: 82
2026-06-21 12:00:21 - INFO -   RLT: 1
2026-06-21 12:00:21 - INFO -   Relax-and-lift: 12
2026-06-21 12:00:21 - INFO - 
2026-06-21 12:00:21 - INFO - Explored 84126 nodes (3643276 simplex iterations) in 33.66 seconds (53.70 work units)
2026-06-21 12:00:21 - INFO - Thread count was 28 (of 28 available processors)
2026-06-21 12:00:21 - INFO - 
2026-06-21 12:00:21 - INFO - Solution count 0
2026-06-21 12:00:21 - INFO - 
2026-06-21 12:00:21 - INFO - Model is infeasible or unbounded
2026-06-21 12:00:21 - INFO - Best objective -, best bound -, gap -
2026-06-21 12:00:21 - INFO - Set parameter TimeLimit to value 300
2026-06-21 12:00:21 - INFO - Set parameter MIPGap to value 0.3
2026-06-21 12:00:21 - INFO - Set parameter MIPFocus to value 3
2026-06-21 12:00:21 - INFO - Set parameter Heuristics to value 0.5
2026-06-21 12:00:21 - INFO - Set parameter LogToConsole to value 1
2026-06-21 12:00:21 - INFO - Gurobi Optimizer version 13.0.1 build v13.0.1rc0 (linux64 - "Ubuntu 20.04.6 LTS")
2026-06-21 12:00:21 - INFO - 
2026-06-21 12:00:21 - INFO - CPU model: AMD Ryzen 9 9950X3D 16-Core Processor, instruction set [SSE2|AVX|AVX2|AVX512]
2026-06-21 12:00:21 - INFO - Thread count: 14 physical cores, 28 logical processors, using up to 28 threads
2026-06-21 12:00:21 - INFO - 
2026-06-21 12:00:21 - INFO - Non-default parameters:
2026-06-21 12:00:21 - INFO - TimeLimit  300
2026-06-21 12:00:21 - INFO - MIPGap  0.3
2026-06-21 12:00:21 - INFO - Heuristics  0.5
2026-06-21 12:00:21 - INFO - MIPFocus  3
2026-06-21 12:00:21 - INFO - 
2026-06-21 12:00:21 - INFO - Academic license 2756663 - for non-commercial use only - registered to hu___@sjtu.edu.cn
2026-06-21 12:00:21 - INFO - Optimize a model with 1440 rows, 658 columns and 4929 nonzeros (Min)
2026-06-21 12:00:21 - INFO - Model fingerprint: 0x740977ec
2026-06-21 12:00:21 - INFO - Model has 4 linear objective coefficients
2026-06-21 12:00:21 - INFO - Variable types: 259 continuous, 399 integer (399 binary)
2026-06-21 12:00:21 - INFO - Coefficient statistics:
2026-06-21 12:00:21 - INFO -   Matrix range     [3e-01, 4e+03]
2026-06-21 12:00:21 - INFO -   Objective range  [2e-05, 8e-02]
2026-06-21 12:00:21 - INFO -   Bounds range     [9e-01, 2e+07]
2026-06-21 12:00:21 - INFO -   RHS range        [9e-01, 3e+02]
2026-06-21 12:00:21 - INFO - 
2026-06-21 12:00:21 - INFO - Presolved: 1320 rows, 554 columns, 4672 nonzeros
2026-06-21 12:00:21 - INFO - 
2026-06-21 12:00:21 - INFO - Continuing optimization...
2026-06-21 12:00:21 - INFO - 
2026-06-21 12:00:21 - INFO - 
2026-06-21 12:00:21 - INFO - Cutting planes:
2026-06-21 12:00:21 - INFO -   Learned: 63
2026-06-21 12:00:21 - INFO -   Gomory: 197
2026-06-21 12:00:21 - INFO -   Lift-and-project: 43
2026-06-21 12:00:21 - INFO -   Cover: 12
2026-06-21 12:00:21 - INFO -   Implied bound: 7
2026-06-21 12:00:21 - INFO -   MIR: 88
2026-06-21 12:00:21 - INFO -   Mixing: 3
2026-06-21 12:00:21 - INFO -   Flow cover: 493
2026-06-21 12:00:21 - INFO -   Inf proof: 82
2026-06-21 12:00:21 - INFO -   RLT: 1
2026-06-21 12:00:21 - INFO -   Relax-and-lift: 12
2026-06-21 12:00:21 - INFO - 
2026-06-21 12:00:21 - INFO - Explored 84126 nodes (3643276 simplex iterations) in 33.68 seconds (53.70 work units)
2026-06-21 12:00:21 - INFO - Most recent optimization runtime was 0.00 seconds (0.00 work units)
2026-06-21 12:00:21 - INFO - Thread count was 28 (of 28 available processors)
2026-06-21 12:00:21 - INFO - 
2026-06-21 12:00:21 - INFO - Solution count 0
2026-06-21 12:00:21 - INFO - 
2026-06-21 12:00:21 - INFO - Model is infeasible or unbounded
2026-06-21 12:00:21 - INFO - Best objective -, best bound -, gap -
2026-06-21 12:00:21 - INFO - Set parameter TimeLimit to value 3600
2026-06-21 12:00:21 - INFO - Set parameter MIPGap to value 0.8
2026-06-21 12:00:21 - INFO - Set parameter MIPFocus to value 3
2026-06-21 12:00:21 - INFO - Set parameter Heuristics to value 0.5
2026-06-21 12:00:21 - INFO - Set parameter LogToConsole to value 1
2026-06-21 12:00:21 - INFO - Gurobi Optimizer version 13.0.1 build v13.0.1rc0 (linux64 - "Ubuntu 20.04.6 LTS")
2026-06-21 12:00:21 - INFO - 
2026-06-21 12:00:21 - INFO - CPU model: AMD Ryzen 9 9950X3D 16-Core Processor, instruction set [SSE2|AVX|AVX2|AVX512]
2026-06-21 12:00:21 - INFO - Thread count: 14 physical cores, 28 logical processors, using up to 28 threads
2026-06-21 12:00:21 - INFO - 
2026-06-21 12:00:21 - INFO - Non-default parameters:
2026-06-21 12:00:21 - INFO - TimeLimit  3600
2026-06-21 12:00:21 - INFO - MIPGap  0.8
2026-06-21 12:00:21 - INFO - Heuristics  0.5
2026-06-21 12:00:21 - INFO - MIPFocus  3
2026-06-21 12:00:21 - INFO - 
2026-06-21 12:00:21 - INFO - Academic license 2756663 - for non-commercial use only - registered to hu___@sjtu.edu.cn
2026-06-21 12:00:21 - INFO - Optimize a model with 1440 rows, 658 columns and 4929 nonzeros (Min)
2026-06-21 12:00:21 - INFO - Model fingerprint: 0x740977ec
2026-06-21 12:00:21 - INFO - Model has 4 linear objective coefficients
2026-06-21 12:00:21 - INFO - Variable types: 259 continuous, 399 integer (399 binary)
2026-06-21 12:00:21 - INFO - Coefficient statistics:
2026-06-21 12:00:21 - INFO -   Matrix range     [3e-01, 4e+03]
2026-06-21 12:00:21 - INFO -   Objective range  [2e-05, 8e-02]
2026-06-21 12:00:21 - INFO -   Bounds range     [9e-01, 2e+07]
2026-06-21 12:00:21 - INFO -   RHS range        [9e-01, 3e+02]
2026-06-21 12:00:21 - INFO - 
2026-06-21 12:00:21 - INFO - Presolved: 1320 rows, 554 columns, 4672 nonzeros
2026-06-21 12:00:21 - INFO - 
2026-06-21 12:00:21 - INFO - Continuing optimization...
2026-06-21 12:00:21 - INFO - 
2026-06-21 12:00:21 - INFO - 
2026-06-21 12:00:21 - INFO - Cutting planes:
2026-06-21 12:00:21 - INFO -   Learned: 63
2026-06-21 12:00:21 - INFO -   Gomory: 197
2026-06-21 12:00:21 - INFO -   Lift-and-project: 43
2026-06-21 12:00:21 - INFO -   Cover: 12
2026-06-21 12:00:21 - INFO -   Implied bound: 7
2026-06-21 12:00:21 - INFO -   MIR: 88
2026-06-21 12:00:21 - INFO -   Mixing: 3
2026-06-21 12:00:21 - INFO -   Flow cover: 493
2026-06-21 12:00:21 - INFO -   Inf proof: 82
2026-06-21 12:00:21 - INFO -   RLT: 1
2026-06-21 12:00:21 - INFO -   Relax-and-lift: 12
2026-06-21 12:00:21 - INFO - 
2026-06-21 12:00:21 - INFO - Explored 84126 nodes (3643276 simplex iterations) in 33.68 seconds (53.70 work units)
2026-06-21 12:00:21 - INFO - Most recent optimization runtime was 0.00 seconds (0.00 work units)
2026-06-21 12:00:21 - INFO - Thread count was 28 (of 28 available processors)
2026-06-21 12:00:21 - INFO - 
2026-06-21 12:00:21 - INFO - Solution count 0
2026-06-21 12:00:21 - INFO - 
2026-06-21 12:00:21 - INFO - Model is infeasible or unbounded
2026-06-21 12:00:21 - INFO - Best objective -, best bound -, gap -
2026-06-21 12:00:21 - INFO - 
EMIB returned 0 solution(s) (max 1).
count 0

Model is infeasible or unbounded
Best objective -, best bound -, gap -
[EMIB] No feasible solution: MIPGap=0.0, status=4, time=33.67s, SolCount=0
[EMIB] Phase 1 no feasible solution, switching to phase 2 MIPGap=0.3.
Set parameter TimeLimit to value 300
Set parameter MIPGap to value 0.3
Set parameter MIPFocus to value 3
Set parameter Heuristics to value 0.5
Set parameter LogToConsole to value 1
Gurobi Optimizer version 13.0.1 build v13.0.1rc0 (linux64 - "Ubuntu 20.04.6 LTS")

CPU model: AMD Ryzen 9 9950X3D 16-Core Processor, instruction set [SSE2|AVX|AVX2|AVX512]
Thread count: 14 physical cores, 28 logical processors, using up to 28 threads

Non-default parameters:
TimeLimit  300
MIPGap  0.3
Heuristics  0.5
MIPFocus  3

Academic license 2756663 - for non-commercial use only - registered to hu___@sjtu.edu.cn
Optimize a model with 1440 rows, 658 columns and 4929 nonzeros (Min)
Model fingerprint: 0x740977ec
Model has 4 linear objective coefficients
Variable types: 259 continuous, 399 integer (399 binary)
Coefficient statistics:
  Matrix range     [3e-01, 4e+03]
  Objective range  [2e-05, 8e-02]
  Bounds range     [9e-01, 2e+07]
  RHS range        [9e-01, 3e+02]

Presolved: 1320 rows, 554 columns, 4672 nonzeros

Continuing optimization...


Cutting planes:
  Learned: 63
  Gomory: 197
  Lift-and-project: 43
  Cover: 12
  Implied bound: 7
  MIR: 88
  Mixing: 3
  Flow cover: 493
  Inf proof: 82
  RLT: 1
  Relax-and-lift: 12

Explored 84126 nodes (3643276 simplex iterations) in 33.68 seconds (53.70 work units)
Most recent optimization runtime was 0.00 seconds (0.00 work units)
Thread count was 28 (of 28 available processors)

Solution count 0

Model is infeasible or unbounded
Best objective -, best bound -, gap -
[EMIB] No feasible solution: MIPGap=0.3, status=4, time=0.01s, SolCount=0
[EMIB] Phase 2 no feasible solution, switching to phase 3 MIPGap=0.8.
Set parameter TimeLimit to value 3600
Set parameter MIPGap to value 0.8
Set parameter MIPFocus to value 3
Set parameter Heuristics to value 0.5
Set parameter LogToConsole to value 1
Gurobi Optimizer version 13.0.1 build v13.0.1rc0 (linux64 - "Ubuntu 20.04.6 LTS")

CPU model: AMD Ryzen 9 9950X3D 16-Core Processor, instruction set [SSE2|AVX|AVX2|AVX512]
Thread count: 14 physical cores, 28 logical processors, using up to 28 threads

Non-default parameters:
TimeLimit  3600
MIPGap  0.8
Heuristics  0.5
MIPFocus  3

Academic license 2756663 - for non-commercial use only - registered to hu___@sjtu.edu.cn
Optimize a model with 1440 rows, 658 columns and 4929 nonzeros (Min)
Model fingerprint: 0x740977ec
Model has 4 linear objective coefficients
Variable types: 259 continuous, 399 integer (399 binary)
Coefficient statistics:
  Matrix range     [3e-01, 4e+03]
  Objective range  [2e-05, 8e-02]
  Bounds range     [9e-01, 2e+07]
  RHS range        [9e-01, 3e+02]

Presolved: 1320 rows, 554 columns, 4672 nonzeros

Continuing optimization...


Cutting planes:
  Learned: 63
  Gomory: 197
  Lift-and-project: 43
  Cover: 12
  Implied bound: 7
  MIR: 88
  Mixing: 3
  Flow cover: 493
  Inf proof: 82
  RLT: 1
  Relax-and-lift: 12

Explored 84126 nodes (3643276 simplex iterations) in 33.68 seconds (53.70 work units)
Most recent optimization runtime was 0.00 seconds (0.00 work units)
Thread count was 28 (of 28 available processors)

Solution count 0

Model is infeasible or unbounded
Best objective -, best bound -, gap -
[EMIB] No feasible solution: MIPGap=0.8, status=4, time=0.00s, SolCount=0
[EMIB] Search failed, no feasible solution
  ✓ EMIB: 0 solution(s)
